2
4
20
1 1.3 1.55 1.75 2.1
19 15 13 30 16 14 22 34 19 6 38 20 10 12 40 21 25 15 34 44 11 5 6 32 26 47 23 11 6 39 35 23 22 19 26 7 42 14 43 43 39 13 47 5 23 8 39 35 13 26 5 34 28 15 31 45 22 33 35 6 20 10 42 8 21 20 36 38 13 32 32 36 18 48 9 16 8 49 15 37 